92 67 62 85 63 51 84 56 
69 88 53 9 10 13 16 17 47 14 12 60 98 
81 39 36 35 37 54 96 
61 42 44 43 40 38 41 72 71 93 94 80 
82 11 15 78 73 79 7 6 8 46 5 3 1 70 100 
91 95 50 33 28 26 27 29 31 34 30 32 89 76 18 48 21 25 77 75 58 57 
45 4 2 55 68 
65 64 20 23 19 49 22 24 83 66 
99 87 97 59 74 86 52 90 
